dates = {'2021-11-16','2021-11-17','2021-11-18','2021-11-19','2021-11-20','2021-11-21','2021-11-22','2021-11-23','2021-11-24','2021-11-25','2021-11-26','2021-11-27','2021-11-28','2021-11-29','2021-11-30','2021-12-01','2021-12-02','2021-12-03','2021-12-04','2021-12-05','2021-12-06'};

daysOfWeek = [Tuesday,Wednesday,Thursday,Friday,Saturday,Sunday,Monday,Tuesday,Wednesday,Thursday,Friday,Saturday,Sunday,Monday,Tuesday,Wednesday,Thursday,Friday,Saturday,Sunday,Monday];

% For this week, how many people will be here.
numPeople = [62,74,83,93,84,88,85,95,95,105,105,108,108,108,105,105,105,115
,125,125,125];

% Physical workers need 50 to 100 % more nutrients per day.
numPhysicalWorkers = [33.0,37.5,37.5,38.0,37.0,37.0,37.0,40.0,40.0,41.0,41.0,41.0,41.0,41.0
,41.0,41.0,41.0,45.0,46.5,46.5,46.5];

% Males need +25% more nutrients per day.
numMen = [47,52,60,71,71,65,65,72,72,81,81,84,84,84,84,81,81,86,96,96,96];

% Num people who do not eat categories. contains = {none, meat, milk, gluten, egg, nut, seed, sugars}
numRefusals = [| 0,0,0,0,0,0,2,0 | 0,5,0,0,2,0,0,0 | 0,0,0,0,4,0,0,0 | 0,4,5,0,0,0,0,8 | 0,2,0,3,0,0,0,0 | 0,0,0,0,0,0,0,10 | 0,0,2,5,0,4,2,1 | 0,6,0,0,6,0,8,0 | 0,6,0,0,6,0,8,0 | 0,0,6,0,0,1,0,0 | 0,0,6,0,0,1,0,0 | 0,11,0,0,0,10,11,5 | 0,11,0,0,0,10,11,5 | 0,11,0,0,0,10,11,5 | 0,7,3,0,1,0,9,1 | 0,7,3,0,1,0,9,1 | 0,7,3,0,1,0,9,1 | 0,0,7,7,0,0,0,6 | 0,0,6,10,0,0,2,0 | 0,0,6,10,0,0,2,0 | 0,0,6,10,0,0,2,0 |];

